c Output_time 26.03.2020 18:15:17_+0100 1585242917274082397
c ** Program information **
c program_name                          "QBRG_debug"
c version                               "0.3.20"
c date                                  "25.3.2020"
c gid_id                                "673970833836058123f633335630c185360d632e"
c author                                "Oliver Kullmann"
c url                                   "https://github.com/OKullmann/oklibrary/blob/master/Satisfiability/Transformers/Generators/Random/QBRG.cpp"
c ** Machine information **
c machine_name                          "chyna-Lenovo-G50-70"
c bogomips                              3791.08
c ** Compilation information **
c compiler_version                      "g++ 7.5.0"
c compilation_date                      "Mar_26_2020 11:16:30"
c compilation_options                   "--std=c++17 -pedantic -fmax-errors=5 -Wall -Wextra -g -D_GLIBCXX_DEBUG"
c NDEBUG                                0
c OPTIMIZE                              0
c ** Parameters **
c command-line                          "./QBRG_debug" "a40 e40 a40 40" "367*1,1|2-2,1|3-3,1|4-4,1" "" "1,t" ""
c output                                "QuBlRaGe_160_367_1585242917273886161.qdimacs"
c options                               "filtered,renamed"
c num_quantifier_blocks                 4
c  quantifier_blocks                    1:a1-40 2:e41-80 3:a81-120 4:e121-160
c num_clause-blocks                     1
c  clause-blocks                        367 * {1-40,1,1/2} | {41-80,1,1/2} | {81-120,1,1/2} | {121-160,1,1/2}
c num_e-seeds                           37+2=39
c  e-seeds                              1 0 1 0 5 160 2 40 0 40 1 40 0 40 1 367 4 1 1 1 1 2 2 2 1 1 2 3 3 1 1 2 4 4 1 1 2 1 1585242917273885422
p cnf 160 367
a 1 2 3 4 5 6 7 8 9 10 11 12 13 14 15 16 17 18 19 20 21 22 23 24 25 26 27 28 29 30 31 32 33 34 35 36 37 38 39 40 0
e 41 42 43 44 45 46 47 48 49 50 51 52 53 54 55 56 57 58 59 60 61 62 63 64 65 66 67 68 69 70 71 72 73 74 75 76 77 78 79 80 0
a 81 82 83 84 85 86 87 88 89 90 91 92 93 94 95 96 97 98 99 100 101 102 103 104 105 106 107 108 109 110 111 112 113 114 115 116 117 118 119 120 0
e 121 122 123 124 125 126 127 128 129 130 131 132 133 134 135 136 137 138 139 140 141 142 143 144 145 146 147 148 149 150 151 152 153 154 155 156 157 158 159 160 0
24 76 86 -121 0
40 47 -93 -121 0
28 61 -110 -121 0
-13 50 -114 -121 0
25 44 -93 121 0
-8 -44 -105 121 0
-9 -70 -82 -122 0
-19 55 92 -122 0
24 60 97 -122 0
10 72 99 -122 0
3 -69 108 -122 0
10 58 -112 -122 0
29 58 112 -122 0
4 69 97 122 0
-27 -52 -103 122 0
37 -79 -103 122 0
-16 -62 -106 122 0
-9 43 -116 122 0
-15 76 117 122 0
-31 -75 88 -123 0
-18 -76 -118 -123 0
26 -58 -88 123 0
-25 -77 -103 123 0
-19 -74 115 123 0
1 56 82 -124 0
21 47 -84 -124 0
14 44 -94 -124 0
-29 -53 98 -124 0
-27 -52 108 -124 0
27 61 -119 -124 0
5 47 -110 124 0
10 61 -113 124 0
-23 -66 83 -125 0
-20 -43 84 -125 0
-15 -75 -91 -125 0
27 76 -92 125 0
-4 -67 -99 125 0
-35 54 99 -126 0
-20 45 104 -126 0
-36 -77 -114 -126 0
-24 60 116 -126 0
-4 62 -119 -126 0
-25 43 81 126 0
20 49 -82 126 0
26 80 -84 126 0
4 -73 -103 126 0
-1 55 -107 126 0
20 -48 -112 126 0
-4 63 95 -127 0
7 57 -106 -127 0
-17 -76 -106 -127 0
22 47 -109 127 0
38 63 -109 127 0
-6 55 -117 127 0
-15 49 -82 -128 0
-16 -50 83 -128 0
-18 -41 90 -128 0
-9 -63 -94 -128 0
-35 61 110 -128 0
-20 67 -118 -128 0
-33 -74 -118 -128 0
24 47 -91 128 0
14 -57 -110 128 0
19 57 118 128 0
-7 -41 84 -129 0
34 -56 -85 -129 0
6 -48 -89 -129 0
8 -69 -90 -129 0
33 -75 -90 -129 0
4 57 98 -129 0
-7 -44 -101 -129 0
-9 80 -111 -129 0
-8 53 -114 -129 0
-22 69 -95 129 0
-10 79 100 129 0
-13 74 114 129 0
-5 79 85 -130 0
17 -67 -87 -130 0
15 80 -103 -130 0
18 49 -115 -130 0
-14 60 -116 -130 0
13 -66 -120 -130 0
20 -63 -86 130 0
-21 -57 93 130 0
-13 70 -101 130 0
-25 -55 115 130 0
34 46 -87 -131 0
25 -73 89 -131 0
16 48 -93 -131 0
-26 -59 -93 -131 0
-24 79 93 -131 0
-18 74 103 -131 0
-2 -80 115 -131 0
-13 66 90 131 0
3 47 -91 131 0
8 -68 92 131 0
-35 -42 -93 131 0
-23 49 -97 131 0
4 -58 -98 131 0
-31 65 105 131 0
-26 70 110 131 0
8 -80 -111 131 0
-5 -70 -105 -132 0
1 -72 118 -132 0
-25 -56 -119 -132 0
8 -62 -98 132 0
-25 -51 -110 132 0
16 67 112 132 0
-40 -76 115 132 0
-39 66 100 -133 0
-10 -76 100 -133 0
16 75 109 -133 0
-26 76 118 -133 0
-21 -54 120 -133 0
39 41 -84 133 0
1 55 86 133 0
10 -54 -90 133 0
17 60 -107 133 0
-33 -76 109 133 0
7 -68 -117 133 0
-27 77 101 -134 0
-22 -58 112 -134 0
-19 -79 112 -134 0
-39 59 -118 -134 0
-5 -69 83 134 0
-11 -42 86 134 0
-24 -77 -89 134 0
24 -54 107 134 0
-19 80 113 134 0
32 58 -118 134 0
-22 -48 83 -135 0
-16 -50 97 -135 0
13 52 -98 -135 0
-36 74 -100 -135 0
-6 -55 100 -135 0
5 -68 101 -135 0
19 50 104 -135 0
39 42 -105 -135 0
31 -53 105 -135 0
25 -51 -111 -135 0
-27 -49 111 -135 0
-36 -63 -120 -135 0
-21 79 85 135 0
10 -55 87 135 0
39 43 96 135 0
20 -64 -97 135 0
-37 46 -99 135 0
-40 61 99 135 0
-31 -43 -101 135 0
-2 -61 103 135 0
-32 45 88 -136 0
24 41 93 -136 0
34 -64 96 -136 0
-1 -69 109 -136 0
-27 48 82 136 0
8 -45 87 136 0
18 45 89 136 0
-14 41 102 136 0
34 -44 -105 136 0
-15 59 -110 136 0
28 49 114 136 0
15 54 84 -137 0
-22 -67 -87 -137 0
19 -49 97 -137 0
-4 -56 116 -137 0
-17 -67 92 137 0
-24 -80 97 137 0
-30 -41 82 -138 0
38 77 -86 -138 0
4 -45 -87 -138 0
-27 -47 -89 -138 0
13 -57 -107 -138 0
-2 -41 -83 138 0
35 -53 89 138 0
32 43 -98 138 0
3 -51 107 138 0
35 -65 -88 -139 0
40 78 112 -139 0
-35 -64 -82 139 0
20 -64 -102 139 0
-8 -48 -104 139 0
-10 -72 113 139 0
-33 -50 115 139 0
30 -49 87 -140 0
-10 72 87 -140 0
16 -66 -95 -140 0
-17 -73 113 -140 0
-25 -63 -95 140 0
6 -49 -106 140 0
30 50 -110 140 0
8 -41 -111 140 0
-1 -75 118 140 0
-5 -42 83 -141 0
15 -55 97 -141 0
-9 78 -100 -141 0
-30 72 -112 -141 0
-22 41 89 141 0
-25 79 90 141 0
21 -64 119 141 0
37 66 -86 -142 0
8 -47 -95 -142 0
-29 -57 -119 -142 0
-34 -70 83 142 0
15 -71 -91 142 0
-2 73 -95 142 0
12 -54 -96 142 0
22 52 101 142 0
-35 -42 -120 142 0
-15 -44 86 -143 0
-10 -53 -91 -143 0
8 61 99 -143 0
23 71 99 -143 0
28 -69 -83 143 0
4 42 -86 143 0
-3 49 87 143 0
-29 -51 87 143 0
11 -58 88 143 0
7 -49 89 143 0
23 70 -115 143 0
5 -66 -118 143 0
24 -55 118 143 0
12 -61 -120 143 0
40 -67 -82 -144 0
-12 68 86 -144 0
-25 58 87 -144 0
14 61 88 -144 0
-6 70 -99 -144 0
-25 55 -104 -144 0
-12 -73 -116 -144 0
-24 -73 -116 -144 0
20 -56 81 144 0
32 72 87 144 0
36 68 102 144 0
29 -41 -115 144 0
-24 42 -81 -145 0
-23 67 -94 -145 0
-37 -54 -106 -145 0
-24 56 -108 -145 0
-30 -50 109 -145 0
-3 41 -116 -145 0
13 -49 -92 145 0
12 53 93 145 0
-5 -74 109 145 0
11 66 118 145 0
25 -78 96 -146 0
11 -75 -104 -146 0
-5 -77 -104 -146 0
7 -77 -92 146 0
34 -77 -117 146 0
16 78 -82 -147 0
5 -77 90 -147 0
22 -47 -97 -147 0
3 64 101 -147 0
40 73 -116 -147 0
37 46 -120 147 0
-31 52 120 147 0
-16 -64 -111 -148 0
-40 -44 116 -148 0
-24 -55 -84 148 0
-20 -56 101 148 0
-35 -42 -87 -149 0
-36 64 101 -149 0
-16 45 -106 -149 0
4 49 -107 -149 0
-20 -71 109 -149 0
-7 -76 -110 -149 0
-13 -58 111 -149 0
16 -74 120 -149 0
-10 -72 -83 149 0
-2 51 -87 149 0
28 66 88 149 0
-17 47 -94 149 0
35 -42 -115 149 0
-23 77 -115 149 0
-38 49 93 -150 0
10 -60 -106 -150 0
-25 64 -107 -150 0
-12 67 -120 -150 0
31 72 86 150 0
-35 -60 98 150 0
-24 49 -82 -151 0
-24 45 98 -151 0
-31 -58 107 -151 0
-9 53 -87 151 0
-12 69 96 151 0
11 43 103 151 0
-18 74 -108 151 0
-28 -72 116 151 0
-33 -72 -83 -152 0
2 -46 100 -152 0
-30 76 -106 -152 0
-9 -50 -115 -152 0
-26 49 -118 -152 0
-40 -73 86 152 0
2 -47 109 152 0
-37 -72 -112 152 0
1 -41 114 152 0
-35 -74 -87 -153 0
23 -45 107 -153 0
26 -52 110 -153 0
-18 53 -82 153 0
-34 -72 105 153 0
-6 -76 -82 -154 0
-1 -72 82 -154 0
9 -77 83 -154 0
12 -66 -84 -154 0
-13 -52 93 -154 0
5 68 -95 -154 0
-26 -80 -113 -154 0
-25 59 113 -154 0
14 63 -82 154 0
-33 -78 -87 154 0
-7 64 -88 154 0
-7 -71 91 154 0
9 -70 -103 154 0
-27 -47 109 154 0
3 63 -113 154 0
-29 -58 113 154 0
35 -59 115 154 0
23 -79 -117 154 0
-9 -76 -118 154 0
8 -57 -95 -155 0
-1 -78 -111 -155 0
-20 -66 112 -155 0
-40 67 114 -155 0
-30 -62 89 155 0
8 -58 98 155 0
32 73 -111 155 0
32 76 -82 -156 0
-32 45 -109 -156 0
-11 58 96 156 0
-36 78 97 156 0
-10 48 81 -157 0
35 51 94 -157 0
15 49 -98 -157 0
5 75 -99 -157 0
18 58 -105 -157 0
-23 60 -112 -157 0
-6 44 -117 -157 0
-12 -77 118 -157 0
25 -60 92 157 0
4 56 93 157 0
-19 41 -105 157 0
17 -54 -109 157 0
-29 -43 -110 157 0
-32 -57 91 -158 0
-30 -52 95 -158 0
-37 75 98 -158 0
7 -63 -105 -158 0
-10 66 106 -158 0
16 -74 107 -158 0
-20 72 83 158 0
-12 62 85 158 0
18 75 -97 158 0
29 41 -99 158 0
1 -53 105 158 0
24 44 -110 158 0
37 -59 112 158 0
30 76 86 -159 0
-21 -51 -97 -159 0
31 -43 -88 159 0
18 -52 88 159 0
-23 76 -118 159 0
36 -63 102 -160 0
24 54 105 -160 0
-40 61 111 -160 0
-17 -70 92 160 0
